(declare-const v0 Bool)
(declare-const v1 Bool)
(declare-const v2 Bool)
(declare-const v3 Bool)
(declare-const v4 Bool)
(assert (edge v0 (or v0 v1)))
(assert (edge (not v2) true))
(assert (edge (or v2 v4 (not v0)) (not v3)))
(assert (edge (or v3 (not v0)) (or v1 (not v3))))
(assert (edge true (or v0 v2 v3)))
(assert (not (edge (or (not v1) (not v0)) (or v3 v4))))